Cost: 664
0-44-50-18-24-49-16-51-0
0-26-12-39-9-40-17-0
0-67-34-46-8-35-7-0
0-48-47-36-69-60-20-37-0
0-68-2-62-22-61-21-30-0
0-53-14-19-54-13-52-0
0-4-45-29-15-57-27-0
0-58-10-38-65-66-11-0
0-63-23-56-43-1-33-6-0
Cost: 664
0-48-47-36-69-60-20-37-0
0-51-16-49-24-18-50-44-0
0-4-45-27-52-34-67-0
0-17-40-9-39-12-26-0
0-30-21-61-22-62-2-68-0
0-19-54-13-57-15-29-0
0-46-8-35-14-53-7-0
0-63-23-56-43-1-33-6-0
0-11-66-65-38-10-58-0
Cost: 664
0-44-50-18-24-49-16-51-0
0-26-12-39-9-40-17-0
0-67-34-46-8-35-7-0
0-48-47-36-69-60-20-37-0
0-68-2-62-22-61-21-30-0
0-53-14-19-54-13-52-0
0-4-45-29-15-57-27-0
0-58-10-38-65-66-11-0
0-63-23-56-43-1-33-6-0
Cost: 664
0-51-16-49-24-18-50-44-0
0-37-20-60-69-36-47-48-0
0-54-13-57-15-29-45-0
0-4-27-52-46-34-67-0
0-26-12-39-9-40-17-0
0-8-19-14-53-35-7-0
0-30-21-61-22-62-2-68-0
0-11-66-65-38-10-58-0
0-63-23-56-43-1-33-6-0
Cost: 664
0-4-45-27-52-34-67-0
0-26-12-39-9-40-17-0
0-8-19-14-53-35-7-0
0-44-50-18-24-49-16-51-0
0-46-54-13-57-15-29-0
0-6-33-1-43-56-23-63-0
0-30-21-61-22-62-2-68-0
0-37-20-60-69-36-47-48-0
0-58-10-38-65-66-11-0
Cost: 664
0-63-23-56-43-1-33-6-0
0-30-21-61-22-62-2-68-0
0-8-19-14-53-35-7-0
0-26-12-39-9-40-17-0
0-37-20-60-69-36-47-48-0
0-11-66-65-38-10-58-0
0-45-29-15-57-13-54-0
0-67-34-46-52-27-4-0
0-51-16-49-24-18-50-44-0
Cost: 664
0-63-23-56-43-1-33-6-0
0-30-21-61-22-62-2-68-0
0-8-19-14-53-35-7-0
0-26-12-39-9-40-17-0
0-37-20-60-69-36-47-48-0
0-11-66-65-38-10-58-0
0-45-29-15-57-13-54-0
0-67-34-46-52-27-4-0
0-51-16-49-24-18-50-44-0
Cost: 664
0-63-23-56-43-1-33-6-0
0-30-21-61-22-62-2-68-0
0-8-19-14-53-35-7-0
0-26-12-39-9-40-17-0
0-37-20-60-69-36-47-48-0
0-11-66-65-38-10-58-0
0-45-29-15-57-13-54-0
0-67-34-46-52-27-4-0
0-51-16-49-24-18-50-44-0
Cost: 664
0-63-23-56-43-1-33-6-0
0-30-21-61-22-62-2-68-0
0-8-19-14-53-35-7-0
0-26-12-39-9-40-17-0
0-37-20-60-69-36-47-48-0
0-11-66-65-38-10-58-0
0-45-29-15-57-13-54-0
0-67-34-46-52-27-4-0
0-51-16-49-24-18-50-44-0
Cost: 664
0-63-23-56-43-1-33-6-0
0-30-21-61-22-62-2-68-0
0-8-19-14-53-35-7-0
0-26-12-39-9-40-17-0
0-37-20-60-69-36-47-48-0
0-11-66-65-38-10-58-0
0-45-29-15-57-13-54-0
0-67-34-46-52-27-4-0
0-51-16-49-24-18-50-44-0
Cost: 664
0-63-23-56-43-1-33-6-0
0-30-21-61-22-62-2-68-0
0-8-19-14-53-35-7-0
0-26-12-39-9-40-17-0
0-37-20-60-69-36-47-48-0
0-11-66-65-38-10-58-0
0-45-29-15-57-13-54-0
0-67-34-46-52-27-4-0
0-51-16-49-24-18-50-44-0
Cost: 664
0-63-23-56-43-1-33-6-0
0-30-21-61-22-62-2-68-0
0-8-19-14-53-35-7-0
0-26-12-39-9-40-17-0
0-37-20-60-69-36-47-48-0
0-11-66-65-38-10-58-0
0-45-29-15-57-13-54-0
0-67-34-46-52-27-4-0
0-51-16-49-24-18-50-44-0
Cost: 664
0-68-2-62-22-61-21-30-0
0-44-50-18-24-49-16-51-0
0-37-20-60-69-36-47-48-0
0-63-23-56-43-1-33-6-0
0-11-66-65-38-10-58-0
0-4-45-29-15-57-27-0
0-52-13-54-19-14-53-0
0-34-46-8-35-7-67-0
0-17-40-9-39-12-26-0
Cost: 664
0-63-23-56-43-1-33-6-0
0-30-21-61-22-62-2-68-0
0-8-19-14-53-35-7-0
0-26-12-39-9-40-17-0
0-37-20-60-69-36-47-48-0
0-11-66-65-38-10-58-0
0-45-29-15-57-13-54-0
0-67-34-46-52-27-4-0
0-51-16-49-24-18-50-44-0
Cost: 664
0-63-23-56-43-1-33-6-0
0-30-21-61-22-62-2-68-0
0-8-19-14-53-35-7-0
0-26-12-39-9-40-17-0
0-37-20-60-69-36-47-48-0
0-11-66-65-38-10-58-0
0-45-29-15-57-13-54-0
0-67-34-46-52-27-4-0
0-51-16-49-24-18-50-44-0
Cost: 664
0-63-23-56-43-1-33-6-0
0-30-21-61-22-62-2-68-0
0-8-19-14-53-35-7-0
0-26-12-39-9-40-17-0
0-37-20-60-69-36-47-48-0
0-11-66-65-38-10-58-0
0-45-29-15-57-13-54-0
0-67-34-46-52-27-4-0
0-51-16-49-24-18-50-44-0
Cost: 664
0-37-20-60-69-36-47-48-0
0-19-54-13-57-15-29-0
0-63-23-56-43-1-33-6-0
0-26-12-39-9-40-17-0
0-30-21-61-22-62-2-68-0
0-11-66-65-38-10-58-0
0-4-45-27-52-34-67-0
0-51-16-49-24-18-50-44-0
0-46-8-35-14-53-7-0
Cost: 664
0-4-27-52-34-46-67-0
0-58-10-38-65-66-11-0
0-26-12-39-9-40-17-0
0-45-29-15-57-13-54-0
0-8-19-14-53-35-7-0
0-68-2-62-22-61-21-30-0
0-48-47-36-69-60-20-37-0
0-63-23-56-43-1-33-6-0
0-44-50-18-24-49-16-51-0
Cost: 664
0-4-27-52-34-46-67-0
0-58-10-38-65-66-11-0
0-26-12-39-9-40-17-0
0-45-29-15-57-13-54-0
0-8-19-14-53-35-7-0
0-68-2-62-22-61-21-30-0
0-48-47-36-69-60-20-37-0
0-63-23-56-43-1-33-6-0
0-44-50-18-24-49-16-51-0
Cost: 664
0-44-50-18-24-49-16-51-0
0-67-34-52-27-45-4-0
0-11-66-65-38-10-58-0
0-30-21-61-22-62-2-68-0
0-46-54-13-57-15-29-0
0-7-35-53-14-19-8-0
0-26-12-39-9-40-17-0
0-63-23-56-43-1-33-6-0
0-48-47-36-69-60-20-37-0
Cost: 664
0-44-50-18-24-49-16-51-0
0-67-34-52-27-45-4-0
0-11-66-65-38-10-58-0
0-30-21-61-22-62-2-68-0
0-46-54-13-57-15-29-0
0-7-35-53-14-19-8-0
0-26-12-39-9-40-17-0
0-63-23-56-43-1-33-6-0
0-48-47-36-69-60-20-37-0
Cost: 664
0-27-57-15-29-45-4-0
0-58-10-38-65-66-11-0
0-53-14-19-54-13-52-0
0-7-35-8-46-34-67-0
0-26-12-39-9-40-17-0
0-44-50-18-24-49-16-51-0
0-37-20-60-69-36-47-48-0
0-63-23-56-43-1-33-6-0
0-68-2-62-22-61-21-30-0
Cost: 664
0-44-50-18-24-49-16-51-0
0-67-34-52-27-45-4-0
0-11-66-65-38-10-58-0
0-30-21-61-22-62-2-68-0
0-46-54-13-57-15-29-0
0-7-35-53-14-19-8-0
0-26-12-39-9-40-17-0
0-63-23-56-43-1-33-6-0
0-48-47-36-69-60-20-37-0
Cost: 664
0-37-20-60-69-36-47-48-0
0-19-54-13-57-15-29-0
0-63-23-56-43-1-33-6-0
0-26-12-39-9-40-17-0
0-30-21-61-22-62-2-68-0
0-11-66-65-38-10-58-0
0-4-45-27-52-34-67-0
0-51-16-49-24-18-50-44-0
0-46-8-35-14-53-7-0
Cost: 664
0-4-27-52-34-46-67-0
0-58-10-38-65-66-11-0
0-26-12-39-9-40-17-0
0-45-29-15-57-13-54-0
0-8-19-14-53-35-7-0
0-68-2-62-22-61-21-30-0
0-48-47-36-69-60-20-37-0
0-63-23-56-43-1-33-6-0
0-44-50-18-24-49-16-51-0
Cost: 664
0-68-2-62-22-61-21-30-0
0-11-66-65-38-10-58-0
0-7-35-53-14-19-8-0
0-17-40-9-39-12-26-0
0-51-16-49-24-18-50-44-0
0-48-47-36-69-60-20-37-0
0-6-33-1-43-56-23-63-0
0-54-13-57-15-29-45-0
0-4-27-52-34-46-67-0
Cost: 673
0-4-34-52-8-46-67-0
0-11-66-65-38-10-58-0
0-45-29-15-57-13-54-0
0-12-39-9-32-40-17-0
0-6-33-43-56-23-63-51-0
0-35-19-14-53-7-26-0
0-16-49-24-18-50-44-3-0
0-48-47-36-69-60-20-37-0
0-30-21-61-22-62-2-68-0
Cost: 675
0-26-7-35-8-46-67-0
0-58-10-38-65-66-11-0
0-12-39-9-32-40-17-0
0-4-45-15-57-27-52-0
0-68-30-48-21-61-22-62-0
0-63-23-56-43-1-33-6-0
0-47-36-69-60-20-37-5-0
0-53-14-19-54-13-34-0
0-51-16-49-24-18-50-44-0
Cost: 664
0-26-12-39-9-40-17-0
0-37-20-60-69-36-47-48-0
0-53-14-19-54-13-52-0
0-11-66-65-38-10-58-0
0-34-46-8-35-7-67-0
0-68-2-62-22-61-21-30-0
0-4-45-29-15-57-27-0
0-44-50-18-24-49-16-51-0
0-6-33-1-43-56-23-63-0
Cost: 664
0-6-33-1-43-56-23-63-0
0-48-47-36-69-60-20-37-0
0-8-19-14-53-35-7-0
0-67-34-52-27-45-4-0
0-11-66-65-38-10-58-0
0-26-12-39-9-40-17-0
0-29-15-57-13-54-46-0
0-51-16-49-24-18-50-44-0
0-30-21-61-22-62-2-68-0
